
Gurobi 13.0.1 (linux64) logging started Fri Mar 20 16:34:59 2026

Set parameter LogFile to value "logs/100B_3F_deterministic_2026-03-20_16h34m26s.log"
Gurobi Optimizer version 13.0.1 build v13.0.1rc0 (linux64 - "openSUSE Tumbleweed")

CPU model: Intel(R) Core(TM) i7-10610U CPU @ 1.80GHz, instruction set [SSE2|AVX|AVX2]
Thread count: 4 physical cores, 8 logical processors, using up to 8 threads

Non-default parameters:
TimeLimit  3600
SoftMemLimit  13.2

Optimize a model with 71720 rows, 477605 columns and 1507763 nonzeros (Max)
Model fingerprint: 0xfbf5be6f
Model has 447860 linear objective coefficients
Variable types: 15110 continuous, 462495 integer (462495 binary)
Coefficient statistics:
  Matrix range     [8e-05, 2e+04]
  Objective range  [8e+00, 3e+03]
  Bounds range     [1e+00, 1e+05]
  RHS range        [2e-02, 1e+05]

Presolve removed 41349 rows and 19390 columns (presolve time = 5s)...
Presolve removed 41349 rows and 19390 columns (presolve time = 10s)...
Presolve removed 41349 rows and 19390 columns (presolve time = 15s)...
Presolve removed 41349 rows and 19390 columns (presolve time = 20s)...
Presolve removed 41349 rows and 19390 columns (presolve time = 25s)...
Presolve removed 41349 rows and 19390 columns (presolve time = 30s)...
Presolve removed 41349 rows and 19390 columns (presolve time = 35s)...
Presolve removed 41349 rows and 19390 columns (presolve time = 40s)...
Presolve removed 41349 rows and 19390 columns (presolve time = 45s)...
Presolve removed 41349 rows and 19390 columns (presolve time = 50s)...
Presolve removed 41349 rows and 19390 columns (presolve time = 55s)...
Presolve removed 41339 rows and 19370 columns
Presolve time: 56.38s

Explored 0 nodes (0 simplex iterations) in 57.08 seconds (18.44 work units)
Thread count was 1 (of 8 available processors)

Solution count 0

Solve interrupted
Best objective -, best bound -, gap -
